902 10
3 3 3 3 3 3 3 3 3 3
0  0 0 0 0 0 0 0 0 0 0  90 2 12 22 32 42 52 62 72 82 92 102 112 122 132 142 152 162 172 182 192 202 212 222 232 242 252 262 272 282 292 302 312 322 332 342 352 362 372 382 392 402 412 422 432 442 452 462 472 482 492 502 512 522 532 542 552 562 572 582 592 602 612 622 632 642 652 662 672 682 692 702 712 722 732 742 752 762 772 782 792 802 812 822 832 842 852 862 872 882 892
38  0 0 1 0 0 0 0 0 0 0  1 3
75  0 0 0 0 1 0 0 0 0 0  1 4
12  0 0 0 0 0 0 0 0 0 1  1 5
97  0 0 0 0 0 1 0 0 0 0  1 6
76  1 0 0 0 0 0 0 0 0 0  1 7
29  0 1 0 0 0 0 0 0 0 0  1 8
14  0 0 0 0 0 0 0 0 1 0  1 9
66  0 0 0 0 0 0 1 0 0 0  1 10
44  0 0 0 0 0 0 0 1 0 0  1 11
12  0 0 0 1 0 0 0 0 0 0  1 902
43  1 0 0 0 0 0 0 0 0 0  1 13
38  0 0 0 0 0 1 0 0 0 0  1 14
80  0 1 0 0 0 0 0 0 0 0  1 15
82  0 0 0 1 0 0 0 0 0 0  1 16
85  0 0 1 0 0 0 0 0 0 0  1 17
58  0 0 0 0 1 0 0 0 0 0  1 18
87  0 0 0 0 0 0 1 0 0 0  1 19
92  0 0 0 0 0 0 0 0 1 0  1 20
89  0 0 0 0 0 0 0 0 0 1  1 21
69  0 0 0 0 0 0 0 1 0 0  1 902
48  0 0 0 0 0 0 1 0 0 0  1 23
8  0 0 0 0 1 0 0 0 0 0  1 24
66  0 0 0 0 0 0 0 0 1 0  1 25
7  0 0 0 0 0 0 0 1 0 0  1 26
14  0 0 1 0 0 0 0 0 0 0  1 27
41  0 0 0 1 0 0 0 0 0 0  1 28
61  0 0 0 0 0 1 0 0 0 0  1 29
43  1 0 0 0 0 0 0 0 0 0  1 30
84  0 1 0 0 0 0 0 0 0 0  1 31
5  0 0 0 0 0 0 0 0 0 1  1 902
19  0 0 0 0 0 1 0 0 0 0  1 33
74  0 0 0 1 0 0 0 0 0 0  1 34
41  0 0 0 0 0 0 1 0 0 0  1 35
59  0 0 0 0 1 0 0 0 0 0  1 36
43  0 0 0 0 0 0 0 0 1 0  1 37
42  0 0 1 0 0 0 0 0 0 0  1 38
73  0 0 0 0 0 0 0 0 0 1  1 39
97  0 0 0 0 0 0 0 1 0 0  1 40
8  0 1 0 0 0 0 0 0 0 0  1 41
96  1 0 0 0 0 0 0 0 0 0  1 902
75  0 0 0 1 0 0 0 0 0 0  1 43
5  0 0 0 0 0 1 0 0 0 0  1 44
70  0 0 1 0 0 0 0 0 0 0  1 45
42  0 0 0 0 0 0 0 0 1 0  1 46
23  0 0 0 0 0 0 0 1 0 0  1 47
55  0 0 0 0 0 0 1 0 0 0  1 48
48  0 1 0 0 0 0 0 0 0 0  1 49
38  0 0 0 0 0 0 0 0 0 1  1 50
37  0 0 0 0 1 0 0 0 0 0  1 51
7  1 0 0 0 0 0 0 0 0 0  1 902
72  0 0 1 0 0 0 0 0 0 0  1 53
31  0 0 0 0 0 0 0 1 0 0  1 54
95  0 0 0 1 0 0 0 0 0 0  1 55
79  1 0 0 0 0 0 0 0 0 0  1 56
25  0 0 0 0 1 0 0 0 0 0  1 57
56  0 1 0 0 0 0 0 0 0 0  1 58
9  0 0 0 0 0 0 0 0 1 0  1 59
60  0 0 0 0 0 0 0 0 0 1  1 60
73  0 0 0 0 0 1 0 0 0 0  1 61
43  0 0 0 0 0 0 1 0 0 0  1 902
31  0 0 0 0 0 0 0 0 0 1  1 63
78  0 0 0 1 0 0 0 0 0 0  1 64
16  0 0 0 0 0 0 1 0 0 0  1 65
94  0 0 0 0 1 0 0 0 0 0  1 66
86  0 0 0 0 0 0 0 1 0 0  1 67
21  0 0 0 0 0 1 0 0 0 0  1 68
97  1 0 0 0 0 0 0 0 0 0  1 69
53  0 0 0 0 0 0 0 0 1 0  1 70
7  0 1 0 0 0 0 0 0 0 0  1 71
64  0 0 1 0 0 0 0 0 0 0  1 902
86  0 0 0 1 0 0 0 0 0 0  1 73
65  0 0 1 0 0 0 0 0 0 0  1 74
59  0 0 0 0 0 0 1 0 0 0  1 75
44  0 0 0 0 0 0 0 0 1 0  1 76
33  0 1 0 0 0 0 0 0 0 0  1 77
85  0 0 0 0 0 0 0 1 0 0  1 78
61  1 0 0 0 0 0 0 0 0 0  1 79
32  0 0 0 0 0 1 0 0 0 0  1 80
63  0 0 0 0 0 0 0 0 0 1  1 81
30  0 0 0 0 1 0 0 0 0 0  1 902
11  0 0 0 0 1 0 0 0 0 0  1 83
61  0 0 0 0 0 1 0 0 0 0  1 84
84  0 0 0 0 0 0 0 0 0 1  1 85
16  0 0 0 1 0 0 0 0 0 0  1 86
90  0 0 0 0 0 0 0 1 0 0  1 87
30  0 1 0 0 0 0 0 0 0 0  1 88
60  1 0 0 0 0 0 0 0 0 0  1 89
93  0 0 0 0 0 0 0 0 1 0  1 90
44  0 0 1 0 0 0 0 0 0 0  1 91
45  0 0 0 0 0 0 1 0 0 0  1 902
11  0 0 0 0 0 1 0 0 0 0  1 93
28  0 0 1 0 0 0 0 0 0 0  1 94
32  1 0 0 0 0 0 0 0 0 0  1 95
36  0 0 0 0 0 0 0 1 0 0  1 96
31  0 0 0 0 0 0 0 0 1 0  1 97
47  0 0 0 0 1 0 0 0 0 0  1 98
20  0 0 0 1 0 0 0 0 0 0  1 99
52  0 0 0 0 0 0 1 0 0 0  1 100
35  0 0 0 0 0 0 0 0 0 1  1 101
49  0 1 0 0 0 0 0 0 0 0  1 902
17  0 0 0 0 0 1 0 0 0 0  1 103
34  0 0 0 1 0 0 0 0 0 0  1 104
49  0 0 0 0 0 0 1 0 0 0  1 105
84  0 1 0 0 0 0 0 0 0 0  1 106
85  1 0 0 0 0 0 0 0 0 0  1 107
20  0 0 0 0 0 0 0 0 1 0  1 108
74  0 0 0 0 0 0 0 1 0 0  1 109
68  0 0 0 0 0 0 0 0 0 1  1 110
10  0 0 0 0 1 0 0 0 0 0  1 111
77  0 0 1 0 0 0 0 0 0 0  1 902
71  0 0 0 0 0 0 0 0 1 0  1 113
7  0 0 0 0 0 1 0 0 0 0  1 114
29  0 0 0 1 0 0 0 0 0 0  1 115
85  0 1 0 0 0 0 0 0 0 0  1 116
76  0 0 0 0 1 0 0 0 0 0  1 117
59  0 0 0 0 0 0 1 0 0 0  1 118
17  0 0 1 0 0 0 0 0 0 0  1 119
17  1 0 0 0 0 0 0 0 0 0  1 120
13  0 0 0 0 0 0 0 0 0 1  1 121
48  0 0 0 0 0 0 0 1 0 0  1 902
39  0 1 0 0 0 0 0 0 0 0  1 123
16  0 0 0 0 0 0 0 0 0 1  1 124
39  0 0 0 0 1 0 0 0 0 0  1 125
87  0 0 0 0 0 0 1 0 0 0  1 126
11  0 0 0 0 0 0 0 1 0 0  1 127
32  0 0 0 1 0 0 0 0 0 0  1 128
15  0 0 1 0 0 0 0 0 0 0  1 129
19  1 0 0 0 0 0 0 0 0 0  1 130
64  0 0 0 0 0 1 0 0 0 0  1 131
43  0 0 0 0 0 0 0 0 1 0  1 902
33  0 0 0 0 0 1 0 0 0 0  1 133
82  0 0 0 0 0 0 0 0 1 0  1 134
92  0 0 1 0 0 0 0 0 0 0  1 135
83  0 1 0 0 0 0 0 0 0 0  1 136
32  0 0 0 0 0 0 1 0 0 0  1 137
99  0 0 0 1 0 0 0 0 0 0  1 138
99  0 0 0 0 0 0 0 0 0 1  1 139
91  0 0 0 0 1 0 0 0 0 0  1 140
8  1 0 0 0 0 0 0 0 0 0  1 141
57  0 0 0 0 0 0 0 1 0 0  1 902
7  0 0 0 0 0 0 0 1 0 0  1 143
48  1 0 0 0 0 0 0 0 0 0  1 144
62  0 0 0 0 0 0 0 0 0 1  1 145
88  0 0 0 0 1 0 0 0 0 0  1 146
21  0 0 0 0 0 0 1 0 0 0  1 147
39  0 0 0 0 0 1 0 0 0 0  1 148
27  0 0 0 0 0 0 0 0 1 0  1 149
91  0 0 0 1 0 0 0 0 0 0  1 150
38  0 1 0 0 0 0 0 0 0 0  1 151
69  0 0 1 0 0 0 0 0 0 0  1 902
64  0 0 0 0 0 0 0 0 0 1  1 153
45  0 0 0 0 0 0 0 0 1 0  1 154
24  0 0 0 1 0 0 0 0 0 0  1 155
80  0 0 0 0 0 0 0 1 0 0  1 156
67  0 0 1 0 0 0 0 0 0 0  1 157
18  0 0 0 0 1 0 0 0 0 0  1 158
38  0 0 0 0 0 0 1 0 0 0  1 159
88  1 0 0 0 0 0 0 0 0 0  1 160
80  0 0 0 0 0 1 0 0 0 0  1 161
44  0 1 0 0 0 0 0 0 0 0  1 902
15  0 0 1 0 0 0 0 0 0 0  1 163
72  0 0 0 1 0 0 0 0 0 0  1 164
40  0 0 0 0 1 0 0 0 0 0  1 165
21  0 0 0 0 0 0 0 1 0 0  1 166
52  0 0 0 0 0 0 0 0 1 0  1 167
51  1 0 0 0 0 0 0 0 0 0  1 168
59  0 0 0 0 0 0 0 0 0 1  1 169
24  0 1 0 0 0 0 0 0 0 0  1 170
47  0 0 0 0 0 0 1 0 0 0  1 171
43  0 0 0 0 0 1 0 0 0 0  1 902
77  0 0 0 0 1 0 0 0 0 0  1 173
43  0 0 0 0 0 0 0 1 0 0  1 174
40  0 1 0 0 0 0 0 0 0 0  1 175
31  0 0 1 0 0 0 0 0 0 0  1 176
76  0 0 0 0 0 0 0 0 1 0  1 177
20  0 0 0 0 0 0 1 0 0 0  1 178
88  0 0 0 0 0 1 0 0 0 0  1 179
70  0 0 0 1 0 0 0 0 0 0  1 180
5  0 0 0 0 0 0 0 0 0 1  1 181
32  1 0 0 0 0 0 0 0 0 0  1 902
14  0 0 1 0 0 0 0 0 0 0  1 183
58  0 0 0 0 0 0 0 1 0 0  1 184
85  0 0 0 0 0 0 0 0 0 1  1 185
64  0 0 0 0 0 1 0 0 0 0  1 186
26  0 1 0 0 0 0 0 0 0 0  1 187
94  0 0 0 0 0 0 1 0 0 0  1 188
32  1 0 0 0 0 0 0 0 0 0  1 189
49  0 0 0 1 0 0 0 0 0 0  1 190
80  0 0 0 0 0 0 0 0 1 0  1 191
47  0 0 0 0 1 0 0 0 0 0  1 902
23  0 0 0 0 0 0 0 0 0 1  1 193
11  0 1 0 0 0 0 0 0 0 0  1 194
34  0 0 0 0 0 0 0 0 1 0  1 195
75  0 0 0 0 1 0 0 0 0 0  1 196
79  0 0 0 0 0 0 0 1 0 0  1 197
26  0 0 0 1 0 0 0 0 0 0  1 198
96  0 0 1 0 0 0 0 0 0 0  1 199
5  1 0 0 0 0 0 0 0 0 0  1 200
9  0 0 0 0 0 0 1 0 0 0  1 201
59  0 0 0 0 0 1 0 0 0 0  1 902
75  1 0 0 0 0 0 0 0 0 0  1 203
20  0 0 1 0 0 0 0 0 0 0  1 204
10  0 0 0 0 0 0 0 0 1 0  1 205
66  0 0 0 1 0 0 0 0 0 0  1 206
43  0 0 0 0 0 0 1 0 0 0  1 207
37  0 0 0 0 0 0 0 1 0 0  1 208
9  0 1 0 0 0 0 0 0 0 0  1 209
83  0 0 0 0 0 0 0 0 0 1  1 210
68  0 0 0 0 1 0 0 0 0 0  1 211
52  0 0 0 0 0 1 0 0 0 0  1 902
54  0 0 0 0 0 0 0 0 1 0  1 213
26  0 1 0 0 0 0 0 0 0 0  1 214
79  0 0 0 0 1 0 0 0 0 0  1 215
88  0 0 0 0 0 0 0 1 0 0  1 216
84  0 0 0 0 0 0 1 0 0 0  1 217
6  1 0 0 0 0 0 0 0 0 0  1 218
54  0 0 1 0 0 0 0 0 0 0  1 219
59  0 0 0 0 0 0 0 0 0 1  1 220
28  0 0 0 1 0 0 0 0 0 0  1 221
42  0 0 0 0 0 1 0 0 0 0  1 902
56  0 0 0 0 1 0 0 0 0 0  1 223
29  0 0 0 0 0 0 0 0 0 1  1 224
36  0 0 0 1 0 0 0 0 0 0  1 225
40  1 0 0 0 0 0 0 0 0 0  1 226
86  0 0 0 0 0 0 1 0 0 0  1 227
68  0 0 0 0 0 0 0 0 1 0  1 228
69  0 0 1 0 0 0 0 0 0 0  1 229
23  0 0 0 0 0 0 0 1 0 0  1 230
62  0 0 0 0 0 1 0 0 0 0  1 231
16  0 1 0 0 0 0 0 0 0 0  1 902
53  0 0 0 0 0 0 0 1 0 0  1 233
5  0 1 0 0 0 0 0 0 0 0  1 234
17  0 0 0 0 0 0 1 0 0 0  1 235
59  0 0 0 0 0 0 0 0 0 1  1 236
59  0 0 1 0 0 0 0 0 0 0  1 237
78  0 0 0 0 0 0 0 0 1 0  1 238
64  0 0 0 1 0 0 0 0 0 0  1 239
82  1 0 0 0 0 0 0 0 0 0  1 240
13  0 0 0 0 1 0 0 0 0 0  1 241
12  0 0 0 0 0 1 0 0 0 0  1 902
7  0 0 0 0 0 0 0 0 0 1  1 243
62  0 0 0 0 0 0 1 0 0 0  1 244
90  0 0 0 0 0 0 0 1 0 0  1 245
83  0 0 0 0 0 1 0 0 0 0  1 246
85  0 1 0 0 0 0 0 0 0 0  1 247
69  0 0 0 1 0 0 0 0 0 0  1 248
16  1 0 0 0 0 0 0 0 0 0  1 249
81  0 0 0 0 1 0 0 0 0 0  1 250
58  0 0 1 0 0 0 0 0 0 0  1 251
66  0 0 0 0 0 0 0 0 1 0  1 902
24  0 0 0 0 0 0 0 1 0 0  1 253
65  0 0 1 0 0 0 0 0 0 0  1 254
69  0 1 0 0 0 0 0 0 0 0  1 255
42  0 0 0 0 0 1 0 0 0 0  1 256
82  0 0 0 0 0 0 0 0 0 1  1 257
82  0 0 0 0 0 0 1 0 0 0  1 258
83  1 0 0 0 0 0 0 0 0 0  1 259
46  0 0 0 1 0 0 0 0 0 0  1 260
72  0 0 0 0 0 0 0 0 1 0  1 261
33  0 0 0 0 1 0 0 0 0 0  1 902
10  0 1 0 0 0 0 0 0 0 0  1 263
27  0 0 0 0 0 0 0 0 1 0  1 264
43  0 0 0 0 0 0 0 1 0 0  1 265
20  0 0 0 0 0 1 0 0 0 0  1 266
71  0 0 0 0 1 0 0 0 0 0  1 267
65  0 0 0 0 0 0 0 0 0 1  1 268
73  0 0 1 0 0 0 0 0 0 0  1 269
99  0 0 0 0 0 0 1 0 0 0  1 270
24  1 0 0 0 0 0 0 0 0 0  1 271
64  0 0 0 1 0 0 0 0 0 0  1 902
35  0 0 0 0 0 0 0 0 0 1  1 273
92  0 0 0 1 0 0 0 0 0 0  1 274
38  1 0 0 0 0 0 0 0 0 0  1 275
35  0 0 0 0 0 1 0 0 0 0  1 276
30  0 0 0 0 0 0 0 1 0 0  1 277
45  0 0 0 0 0 0 0 0 1 0  1 278
8  0 0 1 0 0 0 0 0 0 0  1 279
82  0 0 0 0 1 0 0 0 0 0  1 280
34  0 1 0 0 0 0 0 0 0 0  1 281
21  0 0 0 0 0 0 1 0 0 0  1 902
23  0 0 0 0 0 1 0 0 0 0  1 283
84  0 0 0 0 0 0 0 1 0 0  1 284
7  0 0 0 0 0 0 0 0 0 1  1 285
85  0 0 0 0 1 0 0 0 0 0  1 286
60  0 0 0 0 0 0 0 0 1 0  1 287
15  0 1 0 0 0 0 0 0 0 0  1 288
52  0 0 1 0 0 0 0 0 0 0  1 289
94  0 0 0 0 0 0 1 0 0 0  1 290
83  0 0 0 1 0 0 0 0 0 0  1 291
6  1 0 0 0 0 0 0 0 0 0  1 902
70  0 0 1 0 0 0 0 0 0 0  1 293
29  0 0 0 0 0 0 1 0 0 0  1 294
27  0 0 0 0 0 0 0 0 1 0  1 295
80  0 0 0 0 0 0 0 0 0 1  1 296
6  0 0 0 0 1 0 0 0 0 0  1 297
39  0 0 0 0 0 0 0 1 0 0  1 298
79  0 1 0 0 0 0 0 0 0 0  1 299
28  1 0 0 0 0 0 0 0 0 0  1 300
66  0 0 0 1 0 0 0 0 0 0  1 301
66  0 0 0 0 0 1 0 0 0 0  1 902
38  0 0 1 0 0 0 0 0 0 0  1 303
75  0 0 0 0 1 0 0 0 0 0  1 304
12  0 0 0 0 0 0 0 0 0 1  1 305
97  0 0 0 0 0 1 0 0 0 0  1 306
76  1 0 0 0 0 0 0 0 0 0  1 307
29  0 1 0 0 0 0 0 0 0 0  1 308
14  0 0 0 0 0 0 0 0 1 0  1 309
66  0 0 0 0 0 0 1 0 0 0  1 310
44  0 0 0 0 0 0 0 1 0 0  1 311
12  0 0 0 1 0 0 0 0 0 0  1 902
43  1 0 0 0 0 0 0 0 0 0  1 313
38  0 0 0 0 0 1 0 0 0 0  1 314
80  0 1 0 0 0 0 0 0 0 0  1 315
82  0 0 0 1 0 0 0 0 0 0  1 316
85  0 0 1 0 0 0 0 0 0 0  1 317
58  0 0 0 0 1 0 0 0 0 0  1 318
87  0 0 0 0 0 0 1 0 0 0  1 319
92  0 0 0 0 0 0 0 0 1 0  1 320
89  0 0 0 0 0 0 0 0 0 1  1 321
69  0 0 0 0 0 0 0 1 0 0  1 902
48  0 0 0 0 0 0 1 0 0 0  1 323
8  0 0 0 0 1 0 0 0 0 0  1 324
66  0 0 0 0 0 0 0 0 1 0  1 325
7  0 0 0 0 0 0 0 1 0 0  1 326
14  0 0 1 0 0 0 0 0 0 0  1 327
41  0 0 0 1 0 0 0 0 0 0  1 328
61  0 0 0 0 0 1 0 0 0 0  1 329
43  1 0 0 0 0 0 0 0 0 0  1 330
84  0 1 0 0 0 0 0 0 0 0  1 331
5  0 0 0 0 0 0 0 0 0 1  1 902
19  0 0 0 0 0 1 0 0 0 0  1 333
74  0 0 0 1 0 0 0 0 0 0  1 334
41  0 0 0 0 0 0 1 0 0 0  1 335
59  0 0 0 0 1 0 0 0 0 0  1 336
43  0 0 0 0 0 0 0 0 1 0  1 337
42  0 0 1 0 0 0 0 0 0 0  1 338
73  0 0 0 0 0 0 0 0 0 1  1 339
97  0 0 0 0 0 0 0 1 0 0  1 340
8  0 1 0 0 0 0 0 0 0 0  1 341
96  1 0 0 0 0 0 0 0 0 0  1 902
75  0 0 0 1 0 0 0 0 0 0  1 343
5  0 0 0 0 0 1 0 0 0 0  1 344
70  0 0 1 0 0 0 0 0 0 0  1 345
42  0 0 0 0 0 0 0 0 1 0  1 346
23  0 0 0 0 0 0 0 1 0 0  1 347
55  0 0 0 0 0 0 1 0 0 0  1 348
48  0 1 0 0 0 0 0 0 0 0  1 349
38  0 0 0 0 0 0 0 0 0 1  1 350
37  0 0 0 0 1 0 0 0 0 0  1 351
7  1 0 0 0 0 0 0 0 0 0  1 902
72  0 0 1 0 0 0 0 0 0 0  1 353
31  0 0 0 0 0 0 0 1 0 0  1 354
95  0 0 0 1 0 0 0 0 0 0  1 355
79  1 0 0 0 0 0 0 0 0 0  1 356
25  0 0 0 0 1 0 0 0 0 0  1 357
56  0 1 0 0 0 0 0 0 0 0  1 358
9  0 0 0 0 0 0 0 0 1 0  1 359
60  0 0 0 0 0 0 0 0 0 1  1 360
73  0 0 0 0 0 1 0 0 0 0  1 361
43  0 0 0 0 0 0 1 0 0 0  1 902
31  0 0 0 0 0 0 0 0 0 1  1 363
78  0 0 0 1 0 0 0 0 0 0  1 364
16  0 0 0 0 0 0 1 0 0 0  1 365
94  0 0 0 0 1 0 0 0 0 0  1 366
86  0 0 0 0 0 0 0 1 0 0  1 367
21  0 0 0 0 0 1 0 0 0 0  1 368
97  1 0 0 0 0 0 0 0 0 0  1 369
53  0 0 0 0 0 0 0 0 1 0  1 370
7  0 1 0 0 0 0 0 0 0 0  1 371
64  0 0 1 0 0 0 0 0 0 0  1 902
86  0 0 0 1 0 0 0 0 0 0  1 373
65  0 0 1 0 0 0 0 0 0 0  1 374
59  0 0 0 0 0 0 1 0 0 0  1 375
44  0 0 0 0 0 0 0 0 1 0  1 376
33  0 1 0 0 0 0 0 0 0 0  1 377
85  0 0 0 0 0 0 0 1 0 0  1 378
61  1 0 0 0 0 0 0 0 0 0  1 379
32  0 0 0 0 0 1 0 0 0 0  1 380
63  0 0 0 0 0 0 0 0 0 1  1 381
30  0 0 0 0 1 0 0 0 0 0  1 902
11  0 0 0 0 1 0 0 0 0 0  1 383
61  0 0 0 0 0 1 0 0 0 0  1 384
84  0 0 0 0 0 0 0 0 0 1  1 385
16  0 0 0 1 0 0 0 0 0 0  1 386
90  0 0 0 0 0 0 0 1 0 0  1 387
30  0 1 0 0 0 0 0 0 0 0  1 388
60  1 0 0 0 0 0 0 0 0 0  1 389
93  0 0 0 0 0 0 0 0 1 0  1 390
44  0 0 1 0 0 0 0 0 0 0  1 391
45  0 0 0 0 0 0 1 0 0 0  1 902
11  0 0 0 0 0 1 0 0 0 0  1 393
28  0 0 1 0 0 0 0 0 0 0  1 394
32  1 0 0 0 0 0 0 0 0 0  1 395
36  0 0 0 0 0 0 0 1 0 0  1 396
31  0 0 0 0 0 0 0 0 1 0  1 397
47  0 0 0 0 1 0 0 0 0 0  1 398
20  0 0 0 1 0 0 0 0 0 0  1 399
52  0 0 0 0 0 0 1 0 0 0  1 400
35  0 0 0 0 0 0 0 0 0 1  1 401
49  0 1 0 0 0 0 0 0 0 0  1 902
17  0 0 0 0 0 1 0 0 0 0  1 403
34  0 0 0 1 0 0 0 0 0 0  1 404
49  0 0 0 0 0 0 1 0 0 0  1 405
84  0 1 0 0 0 0 0 0 0 0  1 406
85  1 0 0 0 0 0 0 0 0 0  1 407
20  0 0 0 0 0 0 0 0 1 0  1 408
74  0 0 0 0 0 0 0 1 0 0  1 409
68  0 0 0 0 0 0 0 0 0 1  1 410
10  0 0 0 0 1 0 0 0 0 0  1 411
77  0 0 1 0 0 0 0 0 0 0  1 902
71  0 0 0 0 0 0 0 0 1 0  1 413
7  0 0 0 0 0 1 0 0 0 0  1 414
29  0 0 0 1 0 0 0 0 0 0  1 415
85  0 1 0 0 0 0 0 0 0 0  1 416
76  0 0 0 0 1 0 0 0 0 0  1 417
59  0 0 0 0 0 0 1 0 0 0  1 418
17  0 0 1 0 0 0 0 0 0 0  1 419
17  1 0 0 0 0 0 0 0 0 0  1 420
13  0 0 0 0 0 0 0 0 0 1  1 421
48  0 0 0 0 0 0 0 1 0 0  1 902
39  0 1 0 0 0 0 0 0 0 0  1 423
16  0 0 0 0 0 0 0 0 0 1  1 424
39  0 0 0 0 1 0 0 0 0 0  1 425
87  0 0 0 0 0 0 1 0 0 0  1 426
11  0 0 0 0 0 0 0 1 0 0  1 427
32  0 0 0 1 0 0 0 0 0 0  1 428
15  0 0 1 0 0 0 0 0 0 0  1 429
19  1 0 0 0 0 0 0 0 0 0  1 430
64  0 0 0 0 0 1 0 0 0 0  1 431
43  0 0 0 0 0 0 0 0 1 0  1 902
33  0 0 0 0 0 1 0 0 0 0  1 433
82  0 0 0 0 0 0 0 0 1 0  1 434
92  0 0 1 0 0 0 0 0 0 0  1 435
83  0 1 0 0 0 0 0 0 0 0  1 436
32  0 0 0 0 0 0 1 0 0 0  1 437
99  0 0 0 1 0 0 0 0 0 0  1 438
99  0 0 0 0 0 0 0 0 0 1  1 439
91  0 0 0 0 1 0 0 0 0 0  1 440
8  1 0 0 0 0 0 0 0 0 0  1 441
57  0 0 0 0 0 0 0 1 0 0  1 902
7  0 0 0 0 0 0 0 1 0 0  1 443
48  1 0 0 0 0 0 0 0 0 0  1 444
62  0 0 0 0 0 0 0 0 0 1  1 445
88  0 0 0 0 1 0 0 0 0 0  1 446
21  0 0 0 0 0 0 1 0 0 0  1 447
39  0 0 0 0 0 1 0 0 0 0  1 448
27  0 0 0 0 0 0 0 0 1 0  1 449
91  0 0 0 1 0 0 0 0 0 0  1 450
38  0 1 0 0 0 0 0 0 0 0  1 451
69  0 0 1 0 0 0 0 0 0 0  1 902
64  0 0 0 0 0 0 0 0 0 1  1 453
45  0 0 0 0 0 0 0 0 1 0  1 454
24  0 0 0 1 0 0 0 0 0 0  1 455
80  0 0 0 0 0 0 0 1 0 0  1 456
67  0 0 1 0 0 0 0 0 0 0  1 457
18  0 0 0 0 1 0 0 0 0 0  1 458
38  0 0 0 0 0 0 1 0 0 0  1 459
88  1 0 0 0 0 0 0 0 0 0  1 460
80  0 0 0 0 0 1 0 0 0 0  1 461
44  0 1 0 0 0 0 0 0 0 0  1 902
15  0 0 1 0 0 0 0 0 0 0  1 463
72  0 0 0 1 0 0 0 0 0 0  1 464
40  0 0 0 0 1 0 0 0 0 0  1 465
21  0 0 0 0 0 0 0 1 0 0  1 466
52  0 0 0 0 0 0 0 0 1 0  1 467
51  1 0 0 0 0 0 0 0 0 0  1 468
59  0 0 0 0 0 0 0 0 0 1  1 469
24  0 1 0 0 0 0 0 0 0 0  1 470
47  0 0 0 0 0 0 1 0 0 0  1 471
43  0 0 0 0 0 1 0 0 0 0  1 902
77  0 0 0 0 1 0 0 0 0 0  1 473
43  0 0 0 0 0 0 0 1 0 0  1 474
40  0 1 0 0 0 0 0 0 0 0  1 475
31  0 0 1 0 0 0 0 0 0 0  1 476
76  0 0 0 0 0 0 0 0 1 0  1 477
20  0 0 0 0 0 0 1 0 0 0  1 478
88  0 0 0 0 0 1 0 0 0 0  1 479
70  0 0 0 1 0 0 0 0 0 0  1 480
5  0 0 0 0 0 0 0 0 0 1  1 481
32  1 0 0 0 0 0 0 0 0 0  1 902
14  0 0 1 0 0 0 0 0 0 0  1 483
58  0 0 0 0 0 0 0 1 0 0  1 484
85  0 0 0 0 0 0 0 0 0 1  1 485
64  0 0 0 0 0 1 0 0 0 0  1 486
26  0 1 0 0 0 0 0 0 0 0  1 487
94  0 0 0 0 0 0 1 0 0 0  1 488
32  1 0 0 0 0 0 0 0 0 0  1 489
49  0 0 0 1 0 0 0 0 0 0  1 490
80  0 0 0 0 0 0 0 0 1 0  1 491
47  0 0 0 0 1 0 0 0 0 0  1 902
23  0 0 0 0 0 0 0 0 0 1  1 493
11  0 1 0 0 0 0 0 0 0 0  1 494
34  0 0 0 0 0 0 0 0 1 0  1 495
75  0 0 0 0 1 0 0 0 0 0  1 496
79  0 0 0 0 0 0 0 1 0 0  1 497
26  0 0 0 1 0 0 0 0 0 0  1 498
96  0 0 1 0 0 0 0 0 0 0  1 499
5  1 0 0 0 0 0 0 0 0 0  1 500
9  0 0 0 0 0 0 1 0 0 0  1 501
59  0 0 0 0 0 1 0 0 0 0  1 902
75  1 0 0 0 0 0 0 0 0 0  1 503
20  0 0 1 0 0 0 0 0 0 0  1 504
10  0 0 0 0 0 0 0 0 1 0  1 505
66  0 0 0 1 0 0 0 0 0 0  1 506
43  0 0 0 0 0 0 1 0 0 0  1 507
37  0 0 0 0 0 0 0 1 0 0  1 508
9  0 1 0 0 0 0 0 0 0 0  1 509
83  0 0 0 0 0 0 0 0 0 1  1 510
68  0 0 0 0 1 0 0 0 0 0  1 511
52  0 0 0 0 0 1 0 0 0 0  1 902
54  0 0 0 0 0 0 0 0 1 0  1 513
26  0 1 0 0 0 0 0 0 0 0  1 514
79  0 0 0 0 1 0 0 0 0 0  1 515
88  0 0 0 0 0 0 0 1 0 0  1 516
84  0 0 0 0 0 0 1 0 0 0  1 517
6  1 0 0 0 0 0 0 0 0 0  1 518
54  0 0 1 0 0 0 0 0 0 0  1 519
59  0 0 0 0 0 0 0 0 0 1  1 520
28  0 0 0 1 0 0 0 0 0 0  1 521
42  0 0 0 0 0 1 0 0 0 0  1 902
56  0 0 0 0 1 0 0 0 0 0  1 523
29  0 0 0 0 0 0 0 0 0 1  1 524
36  0 0 0 1 0 0 0 0 0 0  1 525
40  1 0 0 0 0 0 0 0 0 0  1 526
86  0 0 0 0 0 0 1 0 0 0  1 527
68  0 0 0 0 0 0 0 0 1 0  1 528
69  0 0 1 0 0 0 0 0 0 0  1 529
23  0 0 0 0 0 0 0 1 0 0  1 530
62  0 0 0 0 0 1 0 0 0 0  1 531
16  0 1 0 0 0 0 0 0 0 0  1 902
53  0 0 0 0 0 0 0 1 0 0  1 533
5  0 1 0 0 0 0 0 0 0 0  1 534
17  0 0 0 0 0 0 1 0 0 0  1 535
59  0 0 0 0 0 0 0 0 0 1  1 536
59  0 0 1 0 0 0 0 0 0 0  1 537
78  0 0 0 0 0 0 0 0 1 0  1 538
64  0 0 0 1 0 0 0 0 0 0  1 539
82  1 0 0 0 0 0 0 0 0 0  1 540
13  0 0 0 0 1 0 0 0 0 0  1 541
12  0 0 0 0 0 1 0 0 0 0  1 902
7  0 0 0 0 0 0 0 0 0 1  1 543
62  0 0 0 0 0 0 1 0 0 0  1 544
90  0 0 0 0 0 0 0 1 0 0  1 545
83  0 0 0 0 0 1 0 0 0 0  1 546
85  0 1 0 0 0 0 0 0 0 0  1 547
69  0 0 0 1 0 0 0 0 0 0  1 548
16  1 0 0 0 0 0 0 0 0 0  1 549
81  0 0 0 0 1 0 0 0 0 0  1 550
58  0 0 1 0 0 0 0 0 0 0  1 551
66  0 0 0 0 0 0 0 0 1 0  1 902
24  0 0 0 0 0 0 0 1 0 0  1 553
65  0 0 1 0 0 0 0 0 0 0  1 554
69  0 1 0 0 0 0 0 0 0 0  1 555
42  0 0 0 0 0 1 0 0 0 0  1 556
82  0 0 0 0 0 0 0 0 0 1  1 557
82  0 0 0 0 0 0 1 0 0 0  1 558
83  1 0 0 0 0 0 0 0 0 0  1 559
46  0 0 0 1 0 0 0 0 0 0  1 560
72  0 0 0 0 0 0 0 0 1 0  1 561
33  0 0 0 0 1 0 0 0 0 0  1 902
10  0 1 0 0 0 0 0 0 0 0  1 563
27  0 0 0 0 0 0 0 0 1 0  1 564
43  0 0 0 0 0 0 0 1 0 0  1 565
20  0 0 0 0 0 1 0 0 0 0  1 566
71  0 0 0 0 1 0 0 0 0 0  1 567
65  0 0 0 0 0 0 0 0 0 1  1 568
73  0 0 1 0 0 0 0 0 0 0  1 569
99  0 0 0 0 0 0 1 0 0 0  1 570
24  1 0 0 0 0 0 0 0 0 0  1 571
64  0 0 0 1 0 0 0 0 0 0  1 902
35  0 0 0 0 0 0 0 0 0 1  1 573
92  0 0 0 1 0 0 0 0 0 0  1 574
38  1 0 0 0 0 0 0 0 0 0  1 575
35  0 0 0 0 0 1 0 0 0 0  1 576
30  0 0 0 0 0 0 0 1 0 0  1 577
45  0 0 0 0 0 0 0 0 1 0  1 578
8  0 0 1 0 0 0 0 0 0 0  1 579
82  0 0 0 0 1 0 0 0 0 0  1 580
34  0 1 0 0 0 0 0 0 0 0  1 581
21  0 0 0 0 0 0 1 0 0 0  1 902
23  0 0 0 0 0 1 0 0 0 0  1 583
84  0 0 0 0 0 0 0 1 0 0  1 584
7  0 0 0 0 0 0 0 0 0 1  1 585
85  0 0 0 0 1 0 0 0 0 0  1 586
60  0 0 0 0 0 0 0 0 1 0  1 587
15  0 1 0 0 0 0 0 0 0 0  1 588
52  0 0 1 0 0 0 0 0 0 0  1 589
94  0 0 0 0 0 0 1 0 0 0  1 590
83  0 0 0 1 0 0 0 0 0 0  1 591
6  1 0 0 0 0 0 0 0 0 0  1 902
70  0 0 1 0 0 0 0 0 0 0  1 593
29  0 0 0 0 0 0 1 0 0 0  1 594
27  0 0 0 0 0 0 0 0 1 0  1 595
80  0 0 0 0 0 0 0 0 0 1  1 596
6  0 0 0 0 1 0 0 0 0 0  1 597
39  0 0 0 0 0 0 0 1 0 0  1 598
79  0 1 0 0 0 0 0 0 0 0  1 599
28  1 0 0 0 0 0 0 0 0 0  1 600
66  0 0 0 1 0 0 0 0 0 0  1 601
66  0 0 0 0 0 1 0 0 0 0  1 902
38  0 0 1 0 0 0 0 0 0 0  1 603
75  0 0 0 0 1 0 0 0 0 0  1 604
12  0 0 0 0 0 0 0 0 0 1  1 605
97  0 0 0 0 0 1 0 0 0 0  1 606
76  1 0 0 0 0 0 0 0 0 0  1 607
29  0 1 0 0 0 0 0 0 0 0  1 608
14  0 0 0 0 0 0 0 0 1 0  1 609
66  0 0 0 0 0 0 1 0 0 0  1 610
44  0 0 0 0 0 0 0 1 0 0  1 611
12  0 0 0 1 0 0 0 0 0 0  1 902
43  1 0 0 0 0 0 0 0 0 0  1 613
38  0 0 0 0 0 1 0 0 0 0  1 614
80  0 1 0 0 0 0 0 0 0 0  1 615
82  0 0 0 1 0 0 0 0 0 0  1 616
85  0 0 1 0 0 0 0 0 0 0  1 617
58  0 0 0 0 1 0 0 0 0 0  1 618
87  0 0 0 0 0 0 1 0 0 0  1 619
92  0 0 0 0 0 0 0 0 1 0  1 620
89  0 0 0 0 0 0 0 0 0 1  1 621
69  0 0 0 0 0 0 0 1 0 0  1 902
48  0 0 0 0 0 0 1 0 0 0  1 623
8  0 0 0 0 1 0 0 0 0 0  1 624
66  0 0 0 0 0 0 0 0 1 0  1 625
7  0 0 0 0 0 0 0 1 0 0  1 626
14  0 0 1 0 0 0 0 0 0 0  1 627
41  0 0 0 1 0 0 0 0 0 0  1 628
61  0 0 0 0 0 1 0 0 0 0  1 629
43  1 0 0 0 0 0 0 0 0 0  1 630
84  0 1 0 0 0 0 0 0 0 0  1 631
5  0 0 0 0 0 0 0 0 0 1  1 902
19  0 0 0 0 0 1 0 0 0 0  1 633
74  0 0 0 1 0 0 0 0 0 0  1 634
41  0 0 0 0 0 0 1 0 0 0  1 635
59  0 0 0 0 1 0 0 0 0 0  1 636
43  0 0 0 0 0 0 0 0 1 0  1 637
42  0 0 1 0 0 0 0 0 0 0  1 638
73  0 0 0 0 0 0 0 0 0 1  1 639
97  0 0 0 0 0 0 0 1 0 0  1 640
8  0 1 0 0 0 0 0 0 0 0  1 641
96  1 0 0 0 0 0 0 0 0 0  1 902
75  0 0 0 1 0 0 0 0 0 0  1 643
5  0 0 0 0 0 1 0 0 0 0  1 644
70  0 0 1 0 0 0 0 0 0 0  1 645
42  0 0 0 0 0 0 0 0 1 0  1 646
23  0 0 0 0 0 0 0 1 0 0  1 647
55  0 0 0 0 0 0 1 0 0 0  1 648
48  0 1 0 0 0 0 0 0 0 0  1 649
38  0 0 0 0 0 0 0 0 0 1  1 650
37  0 0 0 0 1 0 0 0 0 0  1 651
7  1 0 0 0 0 0 0 0 0 0  1 902
72  0 0 1 0 0 0 0 0 0 0  1 653
31  0 0 0 0 0 0 0 1 0 0  1 654
95  0 0 0 1 0 0 0 0 0 0  1 655
79  1 0 0 0 0 0 0 0 0 0  1 656
25  0 0 0 0 1 0 0 0 0 0  1 657
56  0 1 0 0 0 0 0 0 0 0  1 658
9  0 0 0 0 0 0 0 0 1 0  1 659
60  0 0 0 0 0 0 0 0 0 1  1 660
73  0 0 0 0 0 1 0 0 0 0  1 661
43  0 0 0 0 0 0 1 0 0 0  1 902
31  0 0 0 0 0 0 0 0 0 1  1 663
78  0 0 0 1 0 0 0 0 0 0  1 664
16  0 0 0 0 0 0 1 0 0 0  1 665
94  0 0 0 0 1 0 0 0 0 0  1 666
86  0 0 0 0 0 0 0 1 0 0  1 667
21  0 0 0 0 0 1 0 0 0 0  1 668
97  1 0 0 0 0 0 0 0 0 0  1 669
53  0 0 0 0 0 0 0 0 1 0  1 670
7  0 1 0 0 0 0 0 0 0 0  1 671
64  0 0 1 0 0 0 0 0 0 0  1 902
86  0 0 0 1 0 0 0 0 0 0  1 673
65  0 0 1 0 0 0 0 0 0 0  1 674
59  0 0 0 0 0 0 1 0 0 0  1 675
44  0 0 0 0 0 0 0 0 1 0  1 676
33  0 1 0 0 0 0 0 0 0 0  1 677
85  0 0 0 0 0 0 0 1 0 0  1 678
61  1 0 0 0 0 0 0 0 0 0  1 679
32  0 0 0 0 0 1 0 0 0 0  1 680
63  0 0 0 0 0 0 0 0 0 1  1 681
30  0 0 0 0 1 0 0 0 0 0  1 902
11  0 0 0 0 1 0 0 0 0 0  1 683
61  0 0 0 0 0 1 0 0 0 0  1 684
84  0 0 0 0 0 0 0 0 0 1  1 685
16  0 0 0 1 0 0 0 0 0 0  1 686
90  0 0 0 0 0 0 0 1 0 0  1 687
30  0 1 0 0 0 0 0 0 0 0  1 688
60  1 0 0 0 0 0 0 0 0 0  1 689
93  0 0 0 0 0 0 0 0 1 0  1 690
44  0 0 1 0 0 0 0 0 0 0  1 691
45  0 0 0 0 0 0 1 0 0 0  1 902
11  0 0 0 0 0 1 0 0 0 0  1 693
28  0 0 1 0 0 0 0 0 0 0  1 694
32  1 0 0 0 0 0 0 0 0 0  1 695
36  0 0 0 0 0 0 0 1 0 0  1 696
31  0 0 0 0 0 0 0 0 1 0  1 697
47  0 0 0 0 1 0 0 0 0 0  1 698
20  0 0 0 1 0 0 0 0 0 0  1 699
52  0 0 0 0 0 0 1 0 0 0  1 700
35  0 0 0 0 0 0 0 0 0 1  1 701
49  0 1 0 0 0 0 0 0 0 0  1 902
17  0 0 0 0 0 1 0 0 0 0  1 703
34  0 0 0 1 0 0 0 0 0 0  1 704
49  0 0 0 0 0 0 1 0 0 0  1 705
84  0 1 0 0 0 0 0 0 0 0  1 706
85  1 0 0 0 0 0 0 0 0 0  1 707
20  0 0 0 0 0 0 0 0 1 0  1 708
74  0 0 0 0 0 0 0 1 0 0  1 709
68  0 0 0 0 0 0 0 0 0 1  1 710
10  0 0 0 0 1 0 0 0 0 0  1 711
77  0 0 1 0 0 0 0 0 0 0  1 902
71  0 0 0 0 0 0 0 0 1 0  1 713
7  0 0 0 0 0 1 0 0 0 0  1 714
29  0 0 0 1 0 0 0 0 0 0  1 715
85  0 1 0 0 0 0 0 0 0 0  1 716
76  0 0 0 0 1 0 0 0 0 0  1 717
59  0 0 0 0 0 0 1 0 0 0  1 718
17  0 0 1 0 0 0 0 0 0 0  1 719
17  1 0 0 0 0 0 0 0 0 0  1 720
13  0 0 0 0 0 0 0 0 0 1  1 721
48  0 0 0 0 0 0 0 1 0 0  1 902
39  0 1 0 0 0 0 0 0 0 0  1 723
16  0 0 0 0 0 0 0 0 0 1  1 724
39  0 0 0 0 1 0 0 0 0 0  1 725
87  0 0 0 0 0 0 1 0 0 0  1 726
11  0 0 0 0 0 0 0 1 0 0  1 727
32  0 0 0 1 0 0 0 0 0 0  1 728
15  0 0 1 0 0 0 0 0 0 0  1 729
19  1 0 0 0 0 0 0 0 0 0  1 730
64  0 0 0 0 0 1 0 0 0 0  1 731
43  0 0 0 0 0 0 0 0 1 0  1 902
33  0 0 0 0 0 1 0 0 0 0  1 733
82  0 0 0 0 0 0 0 0 1 0  1 734
92  0 0 1 0 0 0 0 0 0 0  1 735
83  0 1 0 0 0 0 0 0 0 0  1 736
32  0 0 0 0 0 0 1 0 0 0  1 737
99  0 0 0 1 0 0 0 0 0 0  1 738
99  0 0 0 0 0 0 0 0 0 1  1 739
91  0 0 0 0 1 0 0 0 0 0  1 740
8  1 0 0 0 0 0 0 0 0 0  1 741
57  0 0 0 0 0 0 0 1 0 0  1 902
7  0 0 0 0 0 0 0 1 0 0  1 743
48  1 0 0 0 0 0 0 0 0 0  1 744
62  0 0 0 0 0 0 0 0 0 1  1 745
88  0 0 0 0 1 0 0 0 0 0  1 746
21  0 0 0 0 0 0 1 0 0 0  1 747
39  0 0 0 0 0 1 0 0 0 0  1 748
27  0 0 0 0 0 0 0 0 1 0  1 749
91  0 0 0 1 0 0 0 0 0 0  1 750
38  0 1 0 0 0 0 0 0 0 0  1 751
69  0 0 1 0 0 0 0 0 0 0  1 902
64  0 0 0 0 0 0 0 0 0 1  1 753
45  0 0 0 0 0 0 0 0 1 0  1 754
24  0 0 0 1 0 0 0 0 0 0  1 755
80  0 0 0 0 0 0 0 1 0 0  1 756
67  0 0 1 0 0 0 0 0 0 0  1 757
18  0 0 0 0 1 0 0 0 0 0  1 758
38  0 0 0 0 0 0 1 0 0 0  1 759
88  1 0 0 0 0 0 0 0 0 0  1 760
80  0 0 0 0 0 1 0 0 0 0  1 761
44  0 1 0 0 0 0 0 0 0 0  1 902
15  0 0 1 0 0 0 0 0 0 0  1 763
72  0 0 0 1 0 0 0 0 0 0  1 764
40  0 0 0 0 1 0 0 0 0 0  1 765
21  0 0 0 0 0 0 0 1 0 0  1 766
52  0 0 0 0 0 0 0 0 1 0  1 767
51  1 0 0 0 0 0 0 0 0 0  1 768
59  0 0 0 0 0 0 0 0 0 1  1 769
24  0 1 0 0 0 0 0 0 0 0  1 770
47  0 0 0 0 0 0 1 0 0 0  1 771
43  0 0 0 0 0 1 0 0 0 0  1 902
77  0 0 0 0 1 0 0 0 0 0  1 773
43  0 0 0 0 0 0 0 1 0 0  1 774
40  0 1 0 0 0 0 0 0 0 0  1 775
31  0 0 1 0 0 0 0 0 0 0  1 776
76  0 0 0 0 0 0 0 0 1 0  1 777
20  0 0 0 0 0 0 1 0 0 0  1 778
88  0 0 0 0 0 1 0 0 0 0  1 779
70  0 0 0 1 0 0 0 0 0 0  1 780
5  0 0 0 0 0 0 0 0 0 1  1 781
32  1 0 0 0 0 0 0 0 0 0  1 902
14  0 0 1 0 0 0 0 0 0 0  1 783
58  0 0 0 0 0 0 0 1 0 0  1 784
85  0 0 0 0 0 0 0 0 0 1  1 785
64  0 0 0 0 0 1 0 0 0 0  1 786
26  0 1 0 0 0 0 0 0 0 0  1 787
94  0 0 0 0 0 0 1 0 0 0  1 788
32  1 0 0 0 0 0 0 0 0 0  1 789
49  0 0 0 1 0 0 0 0 0 0  1 790
80  0 0 0 0 0 0 0 0 1 0  1 791
47  0 0 0 0 1 0 0 0 0 0  1 902
23  0 0 0 0 0 0 0 0 0 1  1 793
11  0 1 0 0 0 0 0 0 0 0  1 794
34  0 0 0 0 0 0 0 0 1 0  1 795
75  0 0 0 0 1 0 0 0 0 0  1 796
79  0 0 0 0 0 0 0 1 0 0  1 797
26  0 0 0 1 0 0 0 0 0 0  1 798
96  0 0 1 0 0 0 0 0 0 0  1 799
5  1 0 0 0 0 0 0 0 0 0  1 800
9  0 0 0 0 0 0 1 0 0 0  1 801
59  0 0 0 0 0 1 0 0 0 0  1 902
75  1 0 0 0 0 0 0 0 0 0  1 803
20  0 0 1 0 0 0 0 0 0 0  1 804
10  0 0 0 0 0 0 0 0 1 0  1 805
66  0 0 0 1 0 0 0 0 0 0  1 806
43  0 0 0 0 0 0 1 0 0 0  1 807
37  0 0 0 0 0 0 0 1 0 0  1 808
9  0 1 0 0 0 0 0 0 0 0  1 809
83  0 0 0 0 0 0 0 0 0 1  1 810
68  0 0 0 0 1 0 0 0 0 0  1 811
52  0 0 0 0 0 1 0 0 0 0  1 902
54  0 0 0 0 0 0 0 0 1 0  1 813
26  0 1 0 0 0 0 0 0 0 0  1 814
79  0 0 0 0 1 0 0 0 0 0  1 815
88  0 0 0 0 0 0 0 1 0 0  1 816
84  0 0 0 0 0 0 1 0 0 0  1 817
6  1 0 0 0 0 0 0 0 0 0  1 818
54  0 0 1 0 0 0 0 0 0 0  1 819
59  0 0 0 0 0 0 0 0 0 1  1 820
28  0 0 0 1 0 0 0 0 0 0  1 821
42  0 0 0 0 0 1 0 0 0 0  1 902
56  0 0 0 0 1 0 0 0 0 0  1 823
29  0 0 0 0 0 0 0 0 0 1  1 824
36  0 0 0 1 0 0 0 0 0 0  1 825
40  1 0 0 0 0 0 0 0 0 0  1 826
86  0 0 0 0 0 0 1 0 0 0  1 827
68  0 0 0 0 0 0 0 0 1 0  1 828
69  0 0 1 0 0 0 0 0 0 0  1 829
23  0 0 0 0 0 0 0 1 0 0  1 830
62  0 0 0 0 0 1 0 0 0 0  1 831
16  0 1 0 0 0 0 0 0 0 0  1 902
53  0 0 0 0 0 0 0 1 0 0  1 833
5  0 1 0 0 0 0 0 0 0 0  1 834
17  0 0 0 0 0 0 1 0 0 0  1 835
59  0 0 0 0 0 0 0 0 0 1  1 836
59  0 0 1 0 0 0 0 0 0 0  1 837
78  0 0 0 0 0 0 0 0 1 0  1 838
64  0 0 0 1 0 0 0 0 0 0  1 839
82  1 0 0 0 0 0 0 0 0 0  1 840
13  0 0 0 0 1 0 0 0 0 0  1 841
12  0 0 0 0 0 1 0 0 0 0  1 902
7  0 0 0 0 0 0 0 0 0 1  1 843
62  0 0 0 0 0 0 1 0 0 0  1 844
90  0 0 0 0 0 0 0 1 0 0  1 845
83  0 0 0 0 0 1 0 0 0 0  1 846
85  0 1 0 0 0 0 0 0 0 0  1 847
69  0 0 0 1 0 0 0 0 0 0  1 848
16  1 0 0 0 0 0 0 0 0 0  1 849
81  0 0 0 0 1 0 0 0 0 0  1 850
58  0 0 1 0 0 0 0 0 0 0  1 851
66  0 0 0 0 0 0 0 0 1 0  1 902
24  0 0 0 0 0 0 0 1 0 0  1 853
65  0 0 1 0 0 0 0 0 0 0  1 854
69  0 1 0 0 0 0 0 0 0 0  1 855
42  0 0 0 0 0 1 0 0 0 0  1 856
82  0 0 0 0 0 0 0 0 0 1  1 857
82  0 0 0 0 0 0 1 0 0 0  1 858
83  1 0 0 0 0 0 0 0 0 0  1 859
46  0 0 0 1 0 0 0 0 0 0  1 860
72  0 0 0 0 0 0 0 0 1 0  1 861
33  0 0 0 0 1 0 0 0 0 0  1 902
10  0 1 0 0 0 0 0 0 0 0  1 863
27  0 0 0 0 0 0 0 0 1 0  1 864
43  0 0 0 0 0 0 0 1 0 0  1 865
20  0 0 0 0 0 1 0 0 0 0  1 866
71  0 0 0 0 1 0 0 0 0 0  1 867
65  0 0 0 0 0 0 0 0 0 1  1 868
73  0 0 1 0 0 0 0 0 0 0  1 869
99  0 0 0 0 0 0 1 0 0 0  1 870
24  1 0 0 0 0 0 0 0 0 0  1 871
64  0 0 0 1 0 0 0 0 0 0  1 902
35  0 0 0 0 0 0 0 0 0 1  1 873
92  0 0 0 1 0 0 0 0 0 0  1 874
38  1 0 0 0 0 0 0 0 0 0  1 875
35  0 0 0 0 0 1 0 0 0 0  1 876
30  0 0 0 0 0 0 0 1 0 0  1 877
45  0 0 0 0 0 0 0 0 1 0  1 878
8  0 0 1 0 0 0 0 0 0 0  1 879
82  0 0 0 0 1 0 0 0 0 0  1 880
34  0 1 0 0 0 0 0 0 0 0  1 881
21  0 0 0 0 0 0 1 0 0 0  1 902
23  0 0 0 0 0 1 0 0 0 0  1 883
84  0 0 0 0 0 0 0 1 0 0  1 884
7  0 0 0 0 0 0 0 0 0 1  1 885
85  0 0 0 0 1 0 0 0 0 0  1 886
60  0 0 0 0 0 0 0 0 1 0  1 887
15  0 1 0 0 0 0 0 0 0 0  1 888
52  0 0 1 0 0 0 0 0 0 0  1 889
94  0 0 0 0 0 0 1 0 0 0  1 890
83  0 0 0 1 0 0 0 0 0 0  1 891
6  1 0 0 0 0 0 0 0 0 0  1 902
70  0 0 1 0 0 0 0 0 0 0  1 893
29  0 0 0 0 0 0 1 0 0 0  1 894
27  0 0 0 0 0 0 0 0 1 0  1 895
80  0 0 0 0 0 0 0 0 0 1  1 896
6  0 0 0 0 1 0 0 0 0 0  1 897
39  0 0 0 0 0 0 0 1 0 0  1 898
79  0 1 0 0 0 0 0 0 0 0  1 899
28  1 0 0 0 0 0 0 0 0 0  1 900
66  0 0 0 1 0 0 0 0 0 0  1 901
66  0 0 0 0 0 1 0 0 0 0  1 902
0  0 0 0 0 0 0 0 0 0 0  0
